instances/shortest_path/discrete/shortest_path_7_18.lp
\ Model nohadani_7_18
\ LP format - for model browsing. Use MPS format to capture full model detail.
\ Signature: 0x917f322750627386
Minimize
  62.39390995922599 y[0,1] + 20.12461179749811 y[0,3]
   + 14.31782106327635 y[0,5] + 49.73932046178355 y[0,6]
   + 62.39390995922599 y[1,0] + 40 y[1,2] + 54.12947441089743 y[1,3]
   + 25.49509756796392 y[1,4] + 48.16637831516918 y[1,5]
   + 37.21558813185679 y[1,6] + 40 y[2,1] + 21.02379604162864 y[2,4]
   + 77.10382610480494 y[2,6] + 20.12461179749811 y[3,0]
   + 54.12947441089743 y[3,1] + 76 y[3,4] + 15.8113883008419 y[3,5]
   + 54.81788029466298 y[3,6] + 25.49509756796392 y[4,1]
   + 21.02379604162864 y[4,2] + 76 y[4,3] + 72.56721022610694 y[4,5]
   + 60.10823570859488 y[4,6] + 14.31782106327635 y[5,0]
   + 48.16637831516918 y[5,1] + 15.8113883008419 y[5,3]
   + 72.56721022610694 y[5,4] + 40.31128874149275 y[5,6]
   + 49.73932046178355 y[6,0] + 37.21558813185679 y[6,1]
   + 77.10382610480494 y[6,2] + 54.81788029466298 y[6,3]
   + 60.10823570859488 y[6,4] + 40.31128874149275 y[6,5] + x[0,1] + x[0,3]
   + x[0,5] + x[0,6] + x[1,0] + x[1,2] + x[1,3] + x[1,4] + x[1,5] + x[1,6]
   + x[2,1] + x[2,4] + x[2,6] + x[3,0] + x[3,1] + x[3,4] + x[3,5] + x[3,6]
   + x[4,1] + x[4,2] + x[4,3] + x[4,5] + x[4,6] + x[5,0] + x[5,1] + x[5,3]
   + x[5,4] + x[5,6] + x[6,0] + x[6,1] + x[6,2] + x[6,3] + x[6,4] + x[6,5]
   + 6.239390995922599 r[0,1] + 2.012461179749811 r[0,3]
   + 1.431782106327635 r[0,5] + 4.973932046178355 r[0,6]
   + 6.239390995922599 r[1,0] + 4 r[1,2] + 5.412947441089743 r[1,3]
   + 2.549509756796393 r[1,4] + 4.816637831516918 r[1,5]
   + 3.721558813185679 r[1,6] + 4 r[2,1] + 2.102379604162864 r[2,4]
   + 7.710382610480494 r[2,6] + 2.012461179749811 r[3,0]
   + 5.412947441089743 r[3,1] + 7.6 r[3,4] + 1.58113883008419 r[3,5]
   + 5.481788029466299 r[3,6] + 2.549509756796393 r[4,1]
   + 2.102379604162864 r[4,2] + 7.6 r[4,3] + 7.256721022610694 r[4,5]
   + 6.010823570859488 r[4,6] + 1.431782106327635 r[5,0]
   + 4.816637831516918 r[5,1] + 1.58113883008419 r[5,3]
   + 7.256721022610694 r[5,4] + 4.031128874149275 r[5,6]
   + 4.973932046178355 r[6,0] + 3.721558813185679 r[6,1]
   + 7.710382610480494 r[6,2] + 5.481788029466299 r[6,3]
   + 6.010823570859488 r[6,4] + 4.031128874149275 r[6,5]
Subject To
 flow_cons_inner_nodes[1]: y[0,1] - y[1,0] - y[1,2] - y[1,3] - y[1,4]
   - y[1,5] - y[1,6] + y[2,1] + y[3,1] + y[4,1] + y[5,1] + y[6,1] = 0
 flow_cons_inner_nodes[3]: y[0,3] + y[1,3] - y[3,0] - y[3,1] - y[3,4]
   - y[3,5] - y[3,6] + y[4,3] + y[5,3] + y[6,3] = 0
 flow_cons_inner_nodes[4]: y[1,4] + y[2,4] + y[3,4] - y[4,1] - y[4,2]
   - y[4,3] - y[4,5] - y[4,6] + y[5,4] + y[6,4] = 0
 flow_cons_inner_nodes[5]: y[0,5] + y[1,5] + y[3,5] + y[4,5] - y[5,0]
   - y[5,1] - y[5,3] - y[5,4] - y[5,6] + y[6,5] = 0
 flow_cons_inner_nodes[6]: y[0,6] + y[1,6] + y[2,6] + y[3,6] + y[4,6]
   + y[5,6] - y[6,0] - y[6,1] - y[6,2] - y[6,3] - y[6,4] - y[6,5] = 0
 flow_cons_source: y[0,1] + y[0,3] + y[0,5] + y[0,6] - y[1,0] - y[3,0]
   - y[5,0] - y[6,0] = 1
 flow_cons_target: y[1,2] - y[2,1] - y[2,4] - y[2,6] + y[4,2] + y[6,2] = 1
 primal_lower: 0.3771651156214308 x[0,1] + 4.152857216259204 x[0,3]
   + 0.4505636454910183 x[0,5] + 1.618362971504574 x[0,6]
   + 2.459485918488292 x[1,0] + 0.2346716273121218 x[1,2]
   + 0.9752115869651948 x[1,3] + 2.329299823890981 x[1,4]
   + 2.450477804125919 x[1,5] + 1.132151868722091 x[1,6]
   + 4.293075976853725 x[2,1] + 0.8890894960375888 x[2,4]
   + 4.217274947875643 x[2,6] + 0.1559672866695689 x[3,0]
   + 3.825808381465141 x[3,1] + 0.9817797390439583 x[3,4]
   + 0.8620065688218519 x[3,5] + 1.613897571019129 x[3,6]
   + 2.488294657814777 x[4,1] + 3.798358892870938 x[4,2]
   + 2.036168536846687 x[4,3] + 0.4840406924295498 x[4,5]
   + 0.1545032457784296 x[4,6] + 3.572864071804759 x[5,0]
   + 3.286925420486754 x[5,1] + 0.1274568310806885 x[5,3]
   + 0.3341861410345426 x[5,4] + 1.526039808178589 x[5,6]
   + 0.8204796884804384 x[6,0] + 4.049929886928291 x[6,1]
   + 1.873364039987665 x[6,2] + 3.780108783496234 x[6,3]
   + 4.211415741358394 x[6,4] + 0.5581201036264789 x[6,5] + 81 u[0,1]
   + 26 u[0,3] + 72 u[0,5] + 85 u[0,6] + 82 u[1,0] + 11 u[1,2] + 23 u[1,3]
   + 69 u[1,4] + 55 u[1,5] + 88 u[1,6] + 49 u[2,1] + 97 u[2,4] + 66 u[2,6]
   + 50 u[3,0] + 46 u[3,1] + 22 u[3,4] + 99 u[3,5] + 54 u[3,6] + 71 u[4,1]
   + 48 u[4,2] + 51 u[4,3] + 45 u[4,5] + 74 u[4,6] + 40 u[5,0] + 10 u[5,1]
   + 10 u[5,3] + 36 u[5,4] + 45 u[5,6] + 11 u[6,0] + 69 u[6,1] + 3 u[6,2]
   + 13 u[6,3] + 41 u[6,4] + 95 u[6,5] <= 157
 mccormick1[0,1]: - u[0,1] + r[0,1] <= 0
 mccormick1[0,3]: - u[0,3] + r[0,3] <= 0
 mccormick1[0,5]: - u[0,5] + r[0,5] <= 0
 mccormick1[0,6]: - u[0,6] + r[0,6] <= 0
 mccormick1[1,0]: - u[1,0] + r[1,0] <= 0
 mccormick1[1,2]: - u[1,2] + r[1,2] <= 0
 mccormick1[1,3]: - u[1,3] + r[1,3] <= 0
 mccormick1[1,4]: - u[1,4] + r[1,4] <= 0
 mccormick1[1,5]: - u[1,5] + r[1,5] <= 0
 mccormick1[1,6]: - u[1,6] + r[1,6] <= 0
 mccormick1[2,1]: - u[2,1] + r[2,1] <= 0
 mccormick1[2,4]: - u[2,4] + r[2,4] <= 0
 mccormick1[2,6]: - u[2,6] + r[2,6] <= 0
 mccormick1[3,0]: - u[3,0] + r[3,0] <= 0
 mccormick1[3,1]: - u[3,1] + r[3,1] <= 0
 mccormick1[3,4]: - u[3,4] + r[3,4] <= 0
 mccormick1[3,5]: - u[3,5] + r[3,5] <= 0
 mccormick1[3,6]: - u[3,6] + r[3,6] <= 0
 mccormick1[4,1]: - u[4,1] + r[4,1] <= 0
 mccormick1[4,2]: - u[4,2] + r[4,2] <= 0
 mccormick1[4,3]: - u[4,3] + r[4,3] <= 0
 mccormick1[4,5]: - u[4,5] + r[4,5] <= 0
 mccormick1[4,6]: - u[4,6] + r[4,6] <= 0
 mccormick1[5,0]: - u[5,0] + r[5,0] <= 0
 mccormick1[5,1]: - u[5,1] + r[5,1] <= 0
 mccormick1[5,3]: - u[5,3] + r[5,3] <= 0
 mccormick1[5,4]: - u[5,4] + r[5,4] <= 0
 mccormick1[5,6]: - u[5,6] + r[5,6] <= 0
 mccormick1[6,0]: - u[6,0] + r[6,0] <= 0
 mccormick1[6,1]: - u[6,1] + r[6,1] <= 0
 mccormick1[6,2]: - u[6,2] + r[6,2] <= 0
 mccormick1[6,3]: - u[6,3] + r[6,3] <= 0
 mccormick1[6,4]: - u[6,4] + r[6,4] <= 0
 mccormick1[6,5]: - u[6,5] + r[6,5] <= 0
 mccormick2[0,1]: - y[0,1] + r[0,1] <= 0
 mccormick2[0,3]: - y[0,3] + r[0,3] <= 0
 mccormick2[0,5]: - y[0,5] + r[0,5] <= 0
 mccormick2[0,6]: - y[0,6] + r[0,6] <= 0
 mccormick2[1,0]: - y[1,0] + r[1,0] <= 0
 mccormick2[1,2]: - y[1,2] + r[1,2] <= 0
 mccormick2[1,3]: - y[1,3] + r[1,3] <= 0
 mccormick2[1,4]: - y[1,4] + r[1,4] <= 0
 mccormick2[1,5]: - y[1,5] + r[1,5] <= 0
 mccormick2[1,6]: - y[1,6] + r[1,6] <= 0
 mccormick2[2,1]: - y[2,1] + r[2,1] <= 0
 mccormick2[2,4]: - y[2,4] + r[2,4] <= 0
 mccormick2[2,6]: - y[2,6] + r[2,6] <= 0
 mccormick2[3,0]: - y[3,0] + r[3,0] <= 0
 mccormick2[3,1]: - y[3,1] + r[3,1] <= 0
 mccormick2[3,4]: - y[3,4] + r[3,4] <= 0
 mccormick2[3,5]: - y[3,5] + r[3,5] <= 0
 mccormick2[3,6]: - y[3,6] + r[3,6] <= 0
 mccormick2[4,1]: - y[4,1] + r[4,1] <= 0
 mccormick2[4,2]: - y[4,2] + r[4,2] <= 0
 mccormick2[4,3]: - y[4,3] + r[4,3] <= 0
 mccormick2[4,5]: - y[4,5] + r[4,5] <= 0
 mccormick2[4,6]: - y[4,6] + r[4,6] <= 0
 mccormick2[5,0]: - y[5,0] + r[5,0] <= 0
 mccormick2[5,1]: - y[5,1] + r[5,1] <= 0
 mccormick2[5,3]: - y[5,3] + r[5,3] <= 0
 mccormick2[5,4]: - y[5,4] + r[5,4] <= 0
 mccormick2[5,6]: - y[5,6] + r[5,6] <= 0
 mccormick2[6,0]: - y[6,0] + r[6,0] <= 0
 mccormick2[6,1]: - y[6,1] + r[6,1] <= 0
 mccormick2[6,2]: - y[6,2] + r[6,2] <= 0
 mccormick2[6,3]: - y[6,3] + r[6,3] <= 0
 mccormick2[6,4]: - y[6,4] + r[6,4] <= 0
 mccormick2[6,5]: - y[6,5] + r[6,5] <= 0
 mccormick3[0,1]: - y[0,1] - u[0,1] + r[0,1] >= -1
 mccormick3[0,3]: - y[0,3] - u[0,3] + r[0,3] >= -1
 mccormick3[0,5]: - y[0,5] - u[0,5] + r[0,5] >= -1
 mccormick3[0,6]: - y[0,6] - u[0,6] + r[0,6] >= -1
 mccormick3[1,0]: - y[1,0] - u[1,0] + r[1,0] >= -1
 mccormick3[1,2]: - y[1,2] - u[1,2] + r[1,2] >= -1
 mccormick3[1,3]: - y[1,3] - u[1,3] + r[1,3] >= -1
 mccormick3[1,4]: - y[1,4] - u[1,4] + r[1,4] >= -1
 mccormick3[1,5]: - y[1,5] - u[1,5] + r[1,5] >= -1
 mccormick3[1,6]: - y[1,6] - u[1,6] + r[1,6] >= -1
 mccormick3[2,1]: - y[2,1] - u[2,1] + r[2,1] >= -1
 mccormick3[2,4]: - y[2,4] - u[2,4] + r[2,4] >= -1
 mccormick3[2,6]: - y[2,6] - u[2,6] + r[2,6] >= -1
 mccormick3[3,0]: - y[3,0] - u[3,0] + r[3,0] >= -1
 mccormick3[3,1]: - y[3,1] - u[3,1] + r[3,1] >= -1
 mccormick3[3,4]: - y[3,4] - u[3,4] + r[3,4] >= -1
 mccormick3[3,5]: - y[3,5] - u[3,5] + r[3,5] >= -1
 mccormick3[3,6]: - y[3,6] - u[3,6] + r[3,6] >= -1
 mccormick3[4,1]: - y[4,1] - u[4,1] + r[4,1] >= -1
 mccormick3[4,2]: - y[4,2] - u[4,2] + r[4,2] >= -1
 mccormick3[4,3]: - y[4,3] - u[4,3] + r[4,3] >= -1
 mccormick3[4,5]: - y[4,5] - u[4,5] + r[4,5] >= -1
 mccormick3[4,6]: - y[4,6] - u[4,6] + r[4,6] >= -1
 mccormick3[5,0]: - y[5,0] - u[5,0] + r[5,0] >= -1
 mccormick3[5,1]: - y[5,1] - u[5,1] + r[5,1] >= -1
 mccormick3[5,3]: - y[5,3] - u[5,3] + r[5,3] >= -1
 mccormick3[5,4]: - y[5,4] - u[5,4] + r[5,4] >= -1
 mccormick3[5,6]: - y[5,6] - u[5,6] + r[5,6] >= -1
 mccormick3[6,0]: - y[6,0] - u[6,0] + r[6,0] >= -1
 mccormick3[6,1]: - y[6,1] - u[6,1] + r[6,1] >= -1
 mccormick3[6,2]: - y[6,2] - u[6,2] + r[6,2] >= -1
 mccormick3[6,3]: - y[6,3] - u[6,3] + r[6,3] >= -1
 mccormick3[6,4]: - y[6,4] - u[6,4] + r[6,4] >= -1
 mccormick3[6,5]: - y[6,5] - u[6,5] + r[6,5] >= -1
Bounds
Binaries
 y[0,1] y[0,3] y[0,5] y[0,6] y[1,0] y[1,2] y[1,3] y[1,4] y[1,5] y[1,6]
 y[2,1] y[2,4] y[2,6] y[3,0] y[3,1] y[3,4] y[3,5] y[3,6] y[4,1] y[4,2]
 y[4,3] y[4,5] y[4,6] y[5,0] y[5,1] y[5,3] y[5,4] y[5,6] y[6,0] y[6,1]
 y[6,2] y[6,3] y[6,4] y[6,5] x[0,1] x[0,3] x[0,5] x[0,6] x[1,0] x[1,2]
 x[1,3] x[1,4] x[1,5] x[1,6] x[2,1] x[2,4] x[2,6] x[3,0] x[3,1] x[3,4]
 x[3,5] x[3,6] x[4,1] x[4,2] x[4,3] x[4,5] x[4,6] x[5,0] x[5,1] x[5,3]
 x[5,4] x[5,6] x[6,0] x[6,1] x[6,2] x[6,3] x[6,4] x[6,5] u[0,1] u[0,3]
 u[0,5] u[0,6] u[1,0] u[1,2] u[1,3] u[1,4] u[1,5] u[1,6] u[2,1] u[2,4]
 u[2,6] u[3,0] u[3,1] u[3,4] u[3,5] u[3,6] u[4,1] u[4,2] u[4,3] u[4,5]
 u[4,6] u[5,0] u[5,1] u[5,3] u[5,4] u[5,6] u[6,0] u[6,1] u[6,2] u[6,3]
 u[6,4] u[6,5] r[0,1] r[0,3] r[0,5] r[0,6] r[1,0] r[1,2] r[1,3] r[1,4]
 r[1,5] r[1,6] r[2,1] r[2,4] r[2,6] r[3,0] r[3,1] r[3,4] r[3,5] r[3,6]
 r[4,1] r[4,2] r[4,3] r[4,5] r[4,6] r[5,0] r[5,1] r[5,3] r[5,4] r[5,6]
 r[6,0] r[6,1] r[6,2] r[6,3] r[6,4] r[6,5]
End
