instances/shortest_path/discrete/shortest_path_7_18.kp
72801
157

[0.37716511562143085 4.152857216259204 0.45056364549101835 1.6183629715045735 2.4594859184882916 0.2346716273121218 0.9752115869651948 2.329299823890981 2.4504778041259185 1.132151868722091 4.293075976853725 0.8890894960375888 4.2172749478756435 0.15596728666956886 3.825808381465141 0.9817797390439583 0.8620065688218519 1.6138975710191288 2.4882946578147767 3.7983588928709384 2.0361685368466866 0.4840406924295498 0.1545032457784296 3.572864071804759 3.2869254204867535 0.12745683108068853 0.33418614103454264 1.526039808178589 0.8204796884804384 4.049929886928291 1.873364039987665 3.7801087834962344 4.211415741358394 0.5581201036264789]

[81 26 72 85 82 11 23 69 55 88 49 97 66 50 46 22 99 54 71 48 51 45 74 40 10 10 36 45 11 69 3 13 41 95]
